c number of pigeons = 8 ; number of holes = 7
p cnf 56 400
1 2 3 4 5 6 7 0
8 9 10 11 12 13 14 0
15 16 17 18 19 20 21 0
22 23 24 25 26 27 28 0
29 30 31 32 33 34 35 0
36 37 38 39 40 41 42 0
43 44 45 46 47 48 49 0
50 51 52 53 54 55 56 0
-1 -8 0
-1 -15 0
-1 -22 0
-1 -29 0
-1 -36 0
-1 -43 0
-1 -50 0
-8 -1 0
-8 -15 0
-8 -22 0
-8 -29 0
-8 -36 0
-8 -43 0
-8 -50 0
-15 -1 0
-15 -8 0
-15 -22 0
-15 -29 0
-15 -36 0
-15 -43 0
-15 -50 0
-22 -1 0
-22 -8 0
-22 -15 0
-22 -29 0
-22 -36 0
-22 -43 0
-22 -50 0
-29 -1 0
-29 -8 0
-29 -15 0
-29 -22 0
-29 -36 0
-29 -43 0
-29 -50 0
-36 -1 0
-36 -8 0
-36 -15 0
-36 -22 0
-36 -29 0
-36 -43 0
-36 -50 0
-43 -1 0
-43 -8 0
-43 -15 0
-43 -22 0
-43 -29 0
-43 -36 0
-43 -50 0
-50 -1 0
-50 -8 0
-50 -15 0
-50 -22 0
-50 -29 0
-50 -36 0
-50 -43 0
-2 -9 0
-2 -16 0
-2 -23 0
-2 -30 0
-2 -37 0
-2 -44 0
-2 -51 0
-9 -2 0
-9 -16 0
-9 -23 0
-9 -30 0
-9 -37 0
-9 -44 0
-9 -51 0
-16 -2 0
-16 -9 0
-16 -23 0
-16 -30 0
-16 -37 0
-16 -44 0
-16 -51 0
-23 -2 0
-23 -9 0
-23 -16 0
-23 -30 0
-23 -37 0
-23 -44 0
-23 -51 0
-30 -2 0
-30 -9 0
-30 -16 0
-30 -23 0
-30 -37 0
-30 -44 0
-30 -51 0
-37 -2 0
-37 -9 0
-37 -16 0
-37 -23 0
-37 -30 0
-37 -44 0
-37 -51 0
-44 -2 0
-44 -9 0
-44 -16 0
-44 -23 0
-44 -30 0
-44 -37 0
-44 -51 0
-51 -2 0
-51 -9 0
-51 -16 0
-51 -23 0
-51 -30 0
-51 -37 0
-51 -44 0
-3 -10 0
-3 -17 0
-3 -24 0
-3 -31 0
-3 -38 0
-3 -45 0
-3 -52 0
-10 -3 0
-10 -17 0
-10 -24 0
-10 -31 0
-10 -38 0
-10 -45 0
-10 -52 0
-17 -3 0
-17 -10 0
-17 -24 0
-17 -31 0
-17 -38 0
-17 -45 0
-17 -52 0
-24 -3 0
-24 -10 0
-24 -17 0
-24 -31 0
-24 -38 0
-24 -45 0
-24 -52 0
-31 -3 0
-31 -10 0
-31 -17 0
-31 -24 0
-31 -38 0
-31 -45 0
-31 -52 0
-38 -3 0
-38 -10 0
-38 -17 0
-38 -24 0
-38 -31 0
-38 -45 0
-38 -52 0
-45 -3 0
-45 -10 0
-45 -17 0
-45 -24 0
-45 -31 0
-45 -38 0
-45 -52 0
-52 -3 0
-52 -10 0
-52 -17 0
-52 -24 0
-52 -31 0
-52 -38 0
-52 -45 0
-4 -11 0
-4 -18 0
-4 -25 0
-4 -32 0
-4 -39 0
-4 -46 0
-4 -53 0
-11 -4 0
-11 -18 0
-11 -25 0
-11 -32 0
-11 -39 0
-11 -46 0
-11 -53 0
-18 -4 0
-18 -11 0
-18 -25 0
-18 -32 0
-18 -39 0
-18 -46 0
-18 -53 0
-25 -4 0
-25 -11 0
-25 -18 0
-25 -32 0
-25 -39 0
-25 -46 0
-25 -53 0
-32 -4 0
-32 -11 0
-32 -18 0
-32 -25 0
-32 -39 0
-32 -46 0
-32 -53 0
-39 -4 0
-39 -11 0
-39 -18 0
-39 -25 0
-39 -32 0
-39 -46 0
-39 -53 0
-46 -4 0
-46 -11 0
-46 -18 0
-46 -25 0
-46 -32 0
-46 -39 0
-46 -53 0
-53 -4 0
-53 -11 0
-53 -18 0
-53 -25 0
-53 -32 0
-53 -39 0
-53 -46 0
-5 -12 0
-5 -19 0
-5 -26 0
-5 -33 0
-5 -40 0
-5 -47 0
-5 -54 0
-12 -5 0
-12 -19 0
-12 -26 0
-12 -33 0
-12 -40 0
-12 -47 0
-12 -54 0
-19 -5 0
-19 -12 0
-19 -26 0
-19 -33 0
-19 -40 0
-19 -47 0
-19 -54 0
-26 -5 0
-26 -12 0
-26 -19 0
-26 -33 0
-26 -40 0
-26 -47 0
-26 -54 0
-33 -5 0
-33 -12 0
-33 -19 0
-33 -26 0
-33 -40 0
-33 -47 0
-33 -54 0
-40 -5 0
-40 -12 0
-40 -19 0
-40 -26 0
-40 -33 0
-40 -47 0
-40 -54 0
-47 -5 0
-47 -12 0
-47 -19 0
-47 -26 0
-47 -33 0
-47 -40 0
-47 -54 0
-54 -5 0
-54 -12 0
-54 -19 0
-54 -26 0
-54 -33 0
-54 -40 0
-54 -47 0
-6 -13 0
-6 -20 0
-6 -27 0
-6 -34 0
-6 -41 0
-6 -48 0
-6 -55 0
-13 -6 0
-13 -20 0
-13 -27 0
-13 -34 0
-13 -41 0
-13 -48 0
-13 -55 0
-20 -6 0
-20 -13 0
-20 -27 0
-20 -34 0
-20 -41 0
-20 -48 0
-20 -55 0
-27 -6 0
-27 -13 0
-27 -20 0
-27 -34 0
-27 -41 0
-27 -48 0
-27 -55 0
-34 -6 0
-34 -13 0
-34 -20 0
-34 -27 0
-34 -41 0
-34 -48 0
-34 -55 0
-41 -6 0
-41 -13 0
-41 -20 0
-41 -27 0
-41 -34 0
-41 -48 0
-41 -55 0
-48 -6 0
-48 -13 0
-48 -20 0
-48 -27 0
-48 -34 0
-48 -41 0
-48 -55 0
-55 -6 0
-55 -13 0
-55 -20 0
-55 -27 0
-55 -34 0
-55 -41 0
-55 -48 0
-7 -14 0
-7 -21 0
-7 -28 0
-7 -35 0
-7 -42 0
-7 -49 0
-7 -56 0
-14 -7 0
-14 -21 0
-14 -28 0
-14 -35 0
-14 -42 0
-14 -49 0
-14 -56 0
-21 -7 0
-21 -14 0
-21 -28 0
-21 -35 0
-21 -42 0
-21 -49 0
-21 -56 0
-28 -7 0
-28 -14 0
-28 -21 0
-28 -35 0
-28 -42 0
-28 -49 0
-28 -56 0
-35 -7 0
-35 -14 0
-35 -21 0
-35 -28 0
-35 -42 0
-35 -49 0
-35 -56 0
-42 -7 0
-42 -14 0
-42 -21 0
-42 -28 0
-42 -35 0
-42 -49 0
-42 -56 0
-49 -7 0
-49 -14 0
-49 -21 0
-49 -28 0
-49 -35 0
-49 -42 0
-49 -56 0
-56 -7 0
-56 -14 0
-56 -21 0
-56 -28 0
-56 -35 0
-56 -42 0
-56 -49 0